npieces = 15;
duration = [10, 6, 7, 6, 10, 5, 5, 7, 8, 9, 6, 8, 10, 9, 6];
nplayers = 50;
rehearsal = [[1, 1, 1, 1, 0, 0, 1, 1, 1, 1, 1, 1, 1, 0, 0], [0, 0, 1, 1, 1, 1, 1, 1, 1, 1, 1, 1, 1, 1, 1], [1, 1, 1, 0, 1, 1, 1, 1, 1, 1, 0, 1, 0, 1, 1], [0, 0, 1, 1, 1, 1, 1, 1, 0, 1, 0, 0, 1, 1, 1], [0, 0, 1, 0, 1, 0, 0, 1, 1, 1, 0, 1, 1, 1, 0], [1, 1, 1, 1, 1, 1, 1, 1, 1, 1, 1, 1, 1, 1, 1], [1, 1, 0, 0, 0, 1, 0, 0, 1, 1, 1, 1, 1, 1, 1], [1, 1, 1, 0, 1, 1, 1, 1, 1, 1, 1, 0, 1, 1, 1], [0, 0, 0, 1, 0, 1, 1, 1, 1, 0, 1, 1, 1, 0, 1], [1, 1, 0, 1, 0, 0, 1, 0, 1, 0, 1, 1, 0, 1, 0], [1, 1, 1, 1, 1, 1, 1, 1, 1, 1, 0, 1, 1, 1, 1], [1, 1, 1, 0, 1, 1, 1, 1, 1, 0, 0, 1, 0, 0, 0], [0, 1, 1, 0, 0, 1, 1, 0, 0, 1, 0, 0, 1, 0, 1], [1, 1, 1, 1, 1, 1, 1, 1, 1, 0, 1, 1, 0, 0, 1], [0, 1, 1, 1, 1, 1, 0, 0, 0, 1, 1, 1, 0, 0, 1], [1, 1, 1, 1, 1, 0, 1, 0, 1, 1, 1, 1, 1, 0, 1], [1, 1, 1, 0, 1, 1, 1, 1, 1, 1, 0, 0, 1, 0, 1], [0, 1, 0, 1, 0, 1, 1, 1, 1, 1, 0, 1, 1, 1, 1], [1, 1, 0, 1, 1, 0, 1, 1, 1, 1, 1, 1, 1, 1, 1], [1, 1, 0, 1, 1, 1, 0, 1, 1, 1, 0, 1, 0, 1, 1], [0, 1, 0, 0, 0, 1, 1, 1, 1, 0, 1, 1, 1, 0, 1], [1, 0, 1, 0, 0, 1, 1, 1, 1, 1, 1, 0, 1, 0, 1], [1, 1, 1, 1, 1, 1, 1, 0, 1, 1, 1, 1, 1, 1, 1], [1, 0, 1, 1, 1, 1, 1, 0, 0, 1, 1, 0, 1, 0, 1], [0, 1, 1, 1, 0, 1, 0, 1, 1, 0, 1, 1, 0, 1, 1], [0, 1, 1, 1, 1, 1, 0, 1, 1, 1, 1, 0, 1, 0, 1], [0, 1, 1, 1, 1, 1, 1, 1, 0, 1, 1, 1, 1, 1, 1], [0, 0, 1, 0, 1, 1, 1, 1, 1, 1, 1, 0, 0, 1, 1], [1, 0, 1, 1, 1, 1, 1, 1, 1, 1, 1, 0, 1, 1, 0], [1, 1, 1, 1, 0, 1, 1, 0, 0, 1, 1, 1, 1, 1, 1], [0, 1, 1, 0, 1, 1, 0, 1, 1, 0, 1, 1, 1, 0, 1], [0, 0, 1, 1, 1, 1, 1, 0, 1, 1, 1, 0, 1, 1, 0], [1, 1, 1, 1, 1, 1, 1, 1, 1, 1, 1, 1, 1, 0, 1], [1, 0, 1, 1, 1, 1, 0, 1, 1, 1, 0, 1, 1, 1, 1], [1, 1, 1, 1, 1, 1, 1, 1, 1, 0, 1, 1, 1, 1, 1], [0, 1, 1, 1, 1, 1, 1, 0, 1, 1, 1, 1, 1, 1, 1], [1, 1, 0, 0, 0, 0, 1, 1, 0, 1, 0, 1, 1, 1, 0], [0, 1, 1, 1, 1, 1, 1, 1, 1, 1, 0, 0, 1, 1, 1], [1, 0, 1, 0, 1, 1, 1, 1, 0, 1, 1, 1, 0, 1, 1], [1, 1, 1, 1, 1, 1, 1, 1, 1, 1, 1, 1, 1, 1, 1], [1, 1, 1, 1, 1, 1, 1, 0, 1, 0, 1, 0, 1, 1, 1], [1, 1, 1, 1, 1, 1, 1, 1, 1, 1, 1, 1, 1, 1, 1], [0, 0, 1, 1, 0, 1, 1, 0, 1, 1, 1, 1, 1, 0, 0], [1, 1, 1, 1, 0, 1, 1, 1, 0, 1, 0, 1, 1, 1, 0], [0, 1, 1, 1, 1, 0, 0, 1, 0, 1, 1, 0, 1, 1, 1], [1, 1, 1, 1, 1, 1, 1, 1, 1, 1, 1, 0, 1, 1, 1], [1, 1, 1, 1, 1, 1, 0, 1, 1, 1, 1, 0, 0, 1, 1], [1, 1, 1, 1, 1, 0, 1, 1, 0, 1, 0, 1, 1, 0, 1], [1, 0, 1, 1, 1, 1, 1, 0, 0, 0, 1, 1, 1, 0, 1], [1, 1, 0, 0, 0, 0, 0, 1, 1, 1, 0, 1, 1, 1, 1]];